DIMENSION :17
NODE_COORD_SECTION
1 -81.64388076921192 2.277455964890308
2 -99.08819164835583 53.567752075246375
3 45.66701977421138 62.88287644066679
4 -10.426161053546352 3.584102060563481
5 96.03626857563455 -44.51745909664297
6 -76.24853679044713 66.2915761841507
7 -43.62782050953553 95.49251279129533
8 -92.8086428158276 -14.173363411673876
9 -8.040302080247287 2.949258362564237
10 -2.8083860934879255 45.47343314339918
11 -19.379351739628106 -73.0183156884693
12 -89.81652211806079 30.507612435252128
13 79.01903388368922 -62.975394499766544
14 93.06724759817322 25.789953625250163
15 -2.83258351155402 69.76892735256715
16 -67.05982415275109 28.21842054434194
17 -29.333224043831052 35.88296803023397
EOF
